Route #1: 1 4 41 4 45 51 26 56 26 10 26 19 26 33 4 18 1 
Route #2: 1 27 59 40 59 39 11 59 13 1 
Route #3: 1 8 9 20 15 60 15 12 15 54 36 9 47 35 53 28 14 55 14 58 16 30 31 1 
Route #4: 1 7 3 34 3 63 29 22 48 49 22 62 22 37 21 61 21 38 6 30 46 5 1 
Route #5: 1 52 4 17 24 57 42 43 2 43 23 43 65 43 44 24 64 24 50 4 1 
Cost 814.0
